pixelwidth = 744 ;
maxconfig = 7 ;
rows = 132 ;
cols = 3 ;
width = array3d(ROWS,COLS,CONFIGS, [
  299,164,-1,-1,-1,-1,-1,
  159,-1,-1,-1,-1,-1,-1,
  89,-1,-1,-1,-1,-1,-1,
  164,-1,-1,-1,-1,-1,-1,
  159,-1,-1,-1,-1,-1,-1,
  89,-1,-1,-1,-1,-1,-1,
  164,-1,-1,-1,-1,-1,-1,
  159,-1,-1,-1,-1,-1,-1,
  89,-1,-1,-1,-1,-1,-1,
  221,164,-1,-1,-1,-1,-1,
  244,172,159,-1,-1,-1,-1,
  89,-1,-1,-1,-1,-1,-1,
  254,164,-1,-1,-1,-1,-1,
  244,172,159,-1,-1,-1,-1,
  89,-1,-1,-1,-1,-1,-1,
  168,164,-1,-1,-1,-1,-1,
  159,-1,-1,-1,-1,-1,-1,
  89,-1,-1,-1,-1,-1,-1,
  164,-1,-1,-1,-1,-1,-1,
  191,159,-1,-1,-1,-1,-1,
  89,-1,-1,-1,-1,-1,-1,
  164,-1,-1,-1,-1,-1,-1,
  191,159,-1,-1,-1,-1,-1,
  89,-1,-1,-1,-1,-1,-1,
  164,-1,-1,-1,-1,-1,-1,
  320,173,159,-1,-1,-1,-1,
  89,-1,-1,-1,-1,-1,-1,
  164,-1,-1,-1,-1,-1,-1,
  320,173,159,-1,-1,-1,-1,
  89,-1,-1,-1,-1,-1,-1,
  164,-1,-1,-1,-1,-1,-1,
  290,159,-1,-1,-1,-1,-1,
  89,-1,-1,-1,-1,-1,-1,
  164,-1,-1,-1,-1,-1,-1,
  177,159,-1,-1,-1,-1,-1,
  89,-1,-1,-1,-1,-1,-1,
  164,-1,-1,-1,-1,-1,-1,
  191,159,-1,-1,-1,-1,-1,
  89,-1,-1,-1,-1,-1,-1,
  164,-1,-1,-1,-1,-1,-1,
  159,-1,-1,-1,-1,-1,-1,
  89,-1,-1,-1,-1,-1,-1,
  164,-1,-1,-1,-1,-1,-1,
  191,159,-1,-1,-1,-1,-1,
  89,-1,-1,-1,-1,-1,-1,
  164,-1,-1,-1,-1,-1,-1,
  159,-1,-1,-1,-1,-1,-1,
  89,-1,-1,-1,-1,-1,-1,
  164,-1,-1,-1,-1,-1,-1,
  251,159,-1,-1,-1,-1,-1,
  89,-1,-1,-1,-1,-1,-1,
  208,201,164,-1,-1,-1,-1,
  159,-1,-1,-1,-1,-1,-1,
  89,-1,-1,-1,-1,-1,-1,
  164,-1,-1,-1,-1,-1,-1,
  159,-1,-1,-1,-1,-1,-1,
  89,-1,-1,-1,-1,-1,-1,
  164,-1,-1,-1,-1,-1,-1,
  320,173,159,-1,-1,-1,-1,
  89,-1,-1,-1,-1,-1,-1,
  304,168,164,-1,-1,-1,-1,
  197,159,-1,-1,-1,-1,-1,
  89,-1,-1,-1,-1,-1,-1,
  164,-1,-1,-1,-1,-1,-1,
  159,-1,-1,-1,-1,-1,-1,
  89,-1,-1,-1,-1,-1,-1,
  164,-1,-1,-1,-1,-1,-1,
  159,-1,-1,-1,-1,-1,-1,
  89,-1,-1,-1,-1,-1,-1,
  164,-1,-1,-1,-1,-1,-1,
  191,159,-1,-1,-1,-1,-1,
  89,-1,-1,-1,-1,-1,-1,
  164,-1,-1,-1,-1,-1,-1,
  159,-1,-1,-1,-1,-1,-1,
  89,-1,-1,-1,-1,-1,-1,
  164,-1,-1,-1,-1,-1,-1,
  159,-1,-1,-1,-1,-1,-1,
  89,-1,-1,-1,-1,-1,-1,
  164,-1,-1,-1,-1,-1,-1,
  159,-1,-1,-1,-1,-1,-1,
  89,-1,-1,-1,-1,-1,-1,
  164,-1,-1,-1,-1,-1,-1,
  197,159,-1,-1,-1,-1,-1,
  89,-1,-1,-1,-1,-1,-1,
  164,-1,-1,-1,-1,-1,-1,
  159,-1,-1,-1,-1,-1,-1,
  89,-1,-1,-1,-1,-1,-1,
  164,-1,-1,-1,-1,-1,-1,
  320,173,159,-1,-1,-1,-1,
  89,-1,-1,-1,-1,-1,-1,
  164,-1,-1,-1,-1,-1,-1,
  320,173,159,-1,-1,-1,-1,
  89,-1,-1,-1,-1,-1,-1,
  164,-1,-1,-1,-1,-1,-1,
  271,159,-1,-1,-1,-1,-1,
  89,-1,-1,-1,-1,-1,-1,
  164,-1,-1,-1,-1,-1,-1,
  191,159,-1,-1,-1,-1,-1,
  89,-1,-1,-1,-1,-1,-1,
  164,-1,-1,-1,-1,-1,-1,
  395,246,159,-1,-1,-1,-1,
  89,-1,-1,-1,-1,-1,-1,
  165,164,-1,-1,-1,-1,-1,
  308,197,159,-1,-1,-1,-1,
  89,-1,-1,-1,-1,-1,-1,
  164,-1,-1,-1,-1,-1,-1,
  159,-1,-1,-1,-1,-1,-1,
  89,-1,-1,-1,-1,-1,-1,
  164,-1,-1,-1,-1,-1,-1,
  159,-1,-1,-1,-1,-1,-1,
  89,-1,-1,-1,-1,-1,-1,
  164,-1,-1,-1,-1,-1,-1,
  159,-1,-1,-1,-1,-1,-1,
  89,-1,-1,-1,-1,-1,-1,
  164,-1,-1,-1,-1,-1,-1,
  332,216,159,-1,-1,-1,-1,
  89,-1,-1,-1,-1,-1,-1,
  164,-1,-1,-1,-1,-1,-1,
  191,159,-1,-1,-1,-1,-1,
  89,-1,-1,-1,-1,-1,-1,
  164,-1,-1,-1,-1,-1,-1,
  290,159,-1,-1,-1,-1,-1,
  89,-1,-1,-1,-1,-1,-1,
  164,-1,-1,-1,-1,-1,-1,
  159,-1,-1,-1,-1,-1,-1,
  89,-1,-1,-1,-1,-1,-1,
  164,-1,-1,-1,-1,-1,-1,
  159,-1,-1,-1,-1,-1,-1,
  89,-1,-1,-1,-1,-1,-1,
  164,-1,-1,-1,-1,-1,-1,
  159,-1,-1,-1,-1,-1,-1,
  89,-1,-1,-1,-1,-1,-1,
  164,-1,-1,-1,-1,-1,-1,
  159,-1,-1,-1,-1,-1,-1,
  89,-1,-1,-1,-1,-1,-1,
  164,-1,-1,-1,-1,-1,-1,
  281,159,-1,-1,-1,-1,-1,
  89,-1,-1,-1,-1,-1,-1,
  164,-1,-1,-1,-1,-1,-1,
  177,159,-1,-1,-1,-1,-1,
  89,-1,-1,-1,-1,-1,-1,
  164,-1,-1,-1,-1,-1,-1,
  191,159,-1,-1,-1,-1,-1,
  89,-1,-1,-1,-1,-1,-1,
  164,-1,-1,-1,-1,-1,-1,
  159,-1,-1,-1,-1,-1,-1,
  89,-1,-1,-1,-1,-1,-1,
  164,-1,-1,-1,-1,-1,-1,
  276,159,-1,-1,-1,-1,-1,
  89,-1,-1,-1,-1,-1,-1,
  164,-1,-1,-1,-1,-1,-1,
  177,159,-1,-1,-1,-1,-1,
  89,-1,-1,-1,-1,-1,-1,
  164,-1,-1,-1,-1,-1,-1,
  281,159,-1,-1,-1,-1,-1,
  89,-1,-1,-1,-1,-1,-1,
  164,-1,-1,-1,-1,-1,-1,
  205,159,-1,-1,-1,-1,-1,
  89,-1,-1,-1,-1,-1,-1,
  176,164,-1,-1,-1,-1,-1,
  274,159,-1,-1,-1,-1,-1,
  89,-1,-1,-1,-1,-1,-1,
  164,-1,-1,-1,-1,-1,-1,
  177,159,-1,-1,-1,-1,-1,
  89,-1,-1,-1,-1,-1,-1,
  164,-1,-1,-1,-1,-1,-1,
  159,-1,-1,-1,-1,-1,-1,
  89,-1,-1,-1,-1,-1,-1,
  214,164,-1,-1,-1,-1,-1,
  190,159,-1,-1,-1,-1,-1,
  89,-1,-1,-1,-1,-1,-1,
  164,-1,-1,-1,-1,-1,-1,
  159,-1,-1,-1,-1,-1,-1,
  89,-1,-1,-1,-1,-1,-1,
  164,-1,-1,-1,-1,-1,-1,
  297,181,159,-1,-1,-1,-1,
  89,-1,-1,-1,-1,-1,-1,
  211,164,-1,-1,-1,-1,-1,
  310,163,159,-1,-1,-1,-1,
  89,-1,-1,-1,-1,-1,-1,
  164,-1,-1,-1,-1,-1,-1,
  159,-1,-1,-1,-1,-1,-1,
  89,-1,-1,-1,-1,-1,-1,
  182,164,-1,-1,-1,-1,-1,
  159,-1,-1,-1,-1,-1,-1,
  89,-1,-1,-1,-1,-1,-1,
  164,-1,-1,-1,-1,-1,-1,
  159,-1,-1,-1,-1,-1,-1,
  89,-1,-1,-1,-1,-1,-1,
  164,-1,-1,-1,-1,-1,-1,
  191,159,-1,-1,-1,-1,-1,
  251,151,104,89,-1,-1,-1,
  184,164,-1,-1,-1,-1,-1,
  248,159,-1,-1,-1,-1,-1,
  89,-1,-1,-1,-1,-1,-1,
  164,-1,-1,-1,-1,-1,-1,
  159,-1,-1,-1,-1,-1,-1,
  89,-1,-1,-1,-1,-1,-1,
  164,-1,-1,-1,-1,-1,-1,
  159,-1,-1,-1,-1,-1,-1,
  89,-1,-1,-1,-1,-1,-1,
  310,178,164,-1,-1,-1,-1,
  159,-1,-1,-1,-1,-1,-1,
  89,-1,-1,-1,-1,-1,-1,
  173,164,-1,-1,-1,-1,-1,
  197,159,-1,-1,-1,-1,-1,
  187,138,89,-1,-1,-1,-1,
  190,164,-1,-1,-1,-1,-1,
  244,172,159,-1,-1,-1,-1,
  89,-1,-1,-1,-1,-1,-1,
  164,-1,-1,-1,-1,-1,-1,
  310,163,159,-1,-1,-1,-1,
  89,-1,-1,-1,-1,-1,-1,
  164,-1,-1,-1,-1,-1,-1,
  177,159,-1,-1,-1,-1,-1,
  89,-1,-1,-1,-1,-1,-1,
  201,164,-1,-1,-1,-1,-1,
  159,-1,-1,-1,-1,-1,-1,
  89,-1,-1,-1,-1,-1,-1,
  164,-1,-1,-1,-1,-1,-1,
  363,198,162,159,-1,-1,-1,
  89,-1,-1,-1,-1,-1,-1,
  164,-1,-1,-1,-1,-1,-1,
  370,191,159,-1,-1,-1,-1,
  89,-1,-1,-1,-1,-1,-1,
  164,-1,-1,-1,-1,-1,-1,
  159,-1,-1,-1,-1,-1,-1,
  320,175,128,110,89,-1,-1,
  164,-1,-1,-1,-1,-1,-1,
  159,-1,-1,-1,-1,-1,-1,
  89,-1,-1,-1,-1,-1,-1,
  164,-1,-1,-1,-1,-1,-1,
  159,-1,-1,-1,-1,-1,-1,
  89,-1,-1,-1,-1,-1,-1,
  164,-1,-1,-1,-1,-1,-1,
  159,-1,-1,-1,-1,-1,-1,
  89,-1,-1,-1,-1,-1,-1,
  164,-1,-1,-1,-1,-1,-1,
  159,-1,-1,-1,-1,-1,-1,
  89,-1,-1,-1,-1,-1,-1,
  164,-1,-1,-1,-1,-1,-1,
  159,-1,-1,-1,-1,-1,-1,
  89,-1,-1,-1,-1,-1,-1,
  166,164,-1,-1,-1,-1,-1,
  750,399,266,231,195,182,159,
  89,-1,-1,-1,-1,-1,-1,
  164,-1,-1,-1,-1,-1,-1,
  159,-1,-1,-1,-1,-1,-1,
  89,-1,-1,-1,-1,-1,-1,
  164,-1,-1,-1,-1,-1,-1,
  159,-1,-1,-1,-1,-1,-1,
  89,-1,-1,-1,-1,-1,-1,
  164,-1,-1,-1,-1,-1,-1,
  191,159,-1,-1,-1,-1,-1,
  89,-1,-1,-1,-1,-1,-1,
  164,-1,-1,-1,-1,-1,-1,
  191,159,-1,-1,-1,-1,-1,
  89,-1,-1,-1,-1,-1,-1,
  164,-1,-1,-1,-1,-1,-1,
  281,159,-1,-1,-1,-1,-1,
  89,-1,-1,-1,-1,-1,-1,
  164,-1,-1,-1,-1,-1,-1,
  159,-1,-1,-1,-1,-1,-1,
  89,-1,-1,-1,-1,-1,-1,
  164,-1,-1,-1,-1,-1,-1,
  159,-1,-1,-1,-1,-1,-1,
  89,-1,-1,-1,-1,-1,-1,
  164,-1,-1,-1,-1,-1,-1,
  159,-1,-1,-1,-1,-1,-1,
  89,-1,-1,-1,-1,-1,-1,
  164,-1,-1,-1,-1,-1,-1,
  159,-1,-1,-1,-1,-1,-1,
  89,-1,-1,-1,-1,-1,-1,
  164,-1,-1,-1,-1,-1,-1,
  159,-1,-1,-1,-1,-1,-1,
  89,-1,-1,-1,-1,-1,-1,
  164,-1,-1,-1,-1,-1,-1,
  159,-1,-1,-1,-1,-1,-1,
  89,-1,-1,-1,-1,-1,-1,
  164,-1,-1,-1,-1,-1,-1,
  179,159,-1,-1,-1,-1,-1,
  89,-1,-1,-1,-1,-1,-1,
  164,-1,-1,-1,-1,-1,-1,
  210,159,-1,-1,-1,-1,-1,
  89,-1,-1,-1,-1,-1,-1,
  164,-1,-1,-1,-1,-1,-1,
  231,159,-1,-1,-1,-1,-1,
  89,-1,-1,-1,-1,-1,-1,
  164,-1,-1,-1,-1,-1,-1,
  191,159,-1,-1,-1,-1,-1,
  89,-1,-1,-1,-1,-1,-1,
  164,-1,-1,-1,-1,-1,-1,
  191,159,-1,-1,-1,-1,-1,
  89,-1,-1,-1,-1,-1,-1,
  164,-1,-1,-1,-1,-1,-1,
  191,159,-1,-1,-1,-1,-1,
  89,-1,-1,-1,-1,-1,-1,
  164,-1,-1,-1,-1,-1,-1,
  177,159,-1,-1,-1,-1,-1,
  89,-1,-1,-1,-1,-1,-1,
  164,-1,-1,-1,-1,-1,-1,
  159,-1,-1,-1,-1,-1,-1,
  89,-1,-1,-1,-1,-1,-1,
  164,-1,-1,-1,-1,-1,-1,
  197,159,-1,-1,-1,-1,-1,
  89,-1,-1,-1,-1,-1,-1,
  164,-1,-1,-1,-1,-1,-1,
  159,-1,-1,-1,-1,-1,-1,
  89,-1,-1,-1,-1,-1,-1,
  181,164,-1,-1,-1,-1,-1,
  159,-1,-1,-1,-1,-1,-1,
  89,-1,-1,-1,-1,-1,-1,
  187,164,-1,-1,-1,-1,-1,
  159,-1,-1,-1,-1,-1,-1,
  187,138,89,-1,-1,-1,-1,
  164,-1,-1,-1,-1,-1,-1,
  159,-1,-1,-1,-1,-1,-1,
  89,-1,-1,-1,-1,-1,-1,
  226,164,-1,-1,-1,-1,-1,
  197,159,-1,-1,-1,-1,-1,
  89,-1,-1,-1,-1,-1,-1,
  200,164,-1,-1,-1,-1,-1,
  159,-1,-1,-1,-1,-1,-1,
  89,-1,-1,-1,-1,-1,-1,
  164,-1,-1,-1,-1,-1,-1,
  376,244,159,-1,-1,-1,-1,
  89,-1,-1,-1,-1,-1,-1,
  164,-1,-1,-1,-1,-1,-1,
  320,173,159,-1,-1,-1,-1,
  89,-1,-1,-1,-1,-1,-1,
  164,-1,-1,-1,-1,-1,-1,
  320,173,159,-1,-1,-1,-1,
  89,-1,-1,-1,-1,-1,-1,
  164,-1,-1,-1,-1,-1,-1,
  159,-1,-1,-1,-1,-1,-1,
  89,-1,-1,-1,-1,-1,-1,
  164,-1,-1,-1,-1,-1,-1,
  159,-1,-1,-1,-1,-1,-1,
  89,-1,-1,-1,-1,-1,-1,
  164,-1,-1,-1,-1,-1,-1,
  295,159,-1,-1,-1,-1,-1,
  89,-1,-1,-1,-1,-1,-1,
  164,-1,-1,-1,-1,-1,-1,
  376,244,159,-1,-1,-1,-1,
  89,-1,-1,-1,-1,-1,-1,
  164,-1,-1,-1,-1,-1,-1,
  159,-1,-1,-1,-1,-1,-1,
  89,-1,-1,-1,-1,-1,-1,
  164,-1,-1,-1,-1,-1,-1,
  173,159,-1,-1,-1,-1,-1,
  89,-1,-1,-1,-1,-1,-1,
  164,-1,-1,-1,-1,-1,-1,
  320,173,159,-1,-1,-1,-1,
  89,-1,-1,-1,-1,-1,-1,
  164,-1,-1,-1,-1,-1,-1,
  177,159,-1,-1,-1,-1,-1,
  89,-1,-1,-1,-1,-1,-1,
  217,164,-1,-1,-1,-1,-1,
  159,-1,-1,-1,-1,-1,-1,
  89,-1,-1,-1,-1,-1,-1,
  164,-1,-1,-1,-1,-1,-1,
  191,159,-1,-1,-1,-1,-1,
  89,-1,-1,-1,-1,-1,-1,
  267,164,-1,-1,-1,-1,-1,
  159,-1,-1,-1,-1,-1,-1,
  89,-1,-1,-1,-1,-1,-1,
  164,-1,-1,-1,-1,-1,-1,
  177,159,-1,-1,-1,-1,-1,
  89,-1,-1,-1,-1,-1,-1,
  177,164,-1,-1,-1,-1,-1,
  365,219,159,-1,-1,-1,-1,
  89,-1,-1,-1,-1,-1,-1,
  164,-1,-1,-1,-1,-1,-1,
  159,-1,-1,-1,-1,-1,-1,
  89,-1,-1,-1,-1,-1,-1,
  172,164,-1,-1,-1,-1,-1,
  281,159,-1,-1,-1,-1,-1,
  89,-1,-1,-1,-1,-1,-1,
  164,-1,-1,-1,-1,-1,-1,
  177,159,-1,-1,-1,-1,-1,
  89,-1,-1,-1,-1,-1,-1,
  171,164,-1,-1,-1,-1,-1,
  272,159,-1,-1,-1,-1,-1,
  89,-1,-1,-1,-1,-1,-1,
  164,-1,-1,-1,-1,-1,-1,
  177,159,-1,-1,-1,-1,-1,
  89,-1,-1,-1,-1,-1,-1,
  164,-1,-1,-1,-1,-1,-1,
  159,-1,-1,-1,-1,-1,-1,
  89,-1,-1,-1,-1,-1,-1,
  164,-1,-1,-1,-1,-1,-1,
  236,159,-1,-1,-1,-1,-1,
  89,-1,-1,-1,-1,-1,-1,
  164,-1,-1,-1,-1,-1,-1,
  281,159,-1,-1,-1,-1,-1,
  89,-1,-1,-1,-1,-1,-1 ]);
height = array3d(ROWS,COLS,CONFIGS, [
  61,86,-1,-1,-1,-1,-1,
  61,-1,-1,-1,-1,-1,-1,
  61,-1,-1,-1,-1,-1,-1,
  36,-1,-1,-1,-1,-1,-1,
  36,-1,-1,-1,-1,-1,-1,
  36,-1,-1,-1,-1,-1,-1,
  36,-1,-1,-1,-1,-1,-1,
  36,-1,-1,-1,-1,-1,-1,
  36,-1,-1,-1,-1,-1,-1,
  36,61,-1,-1,-1,-1,-1,
  36,61,86,-1,-1,-1,-1,
  36,-1,-1,-1,-1,-1,-1,
  36,61,-1,-1,-1,-1,-1,
  36,61,86,-1,-1,-1,-1,
  36,-1,-1,-1,-1,-1,-1,
  36,61,-1,-1,-1,-1,-1,
  36,-1,-1,-1,-1,-1,-1,
  36,-1,-1,-1,-1,-1,-1,
  36,-1,-1,-1,-1,-1,-1,
  36,61,-1,-1,-1,-1,-1,
  36,-1,-1,-1,-1,-1,-1,
  36,-1,-1,-1,-1,-1,-1,
  36,61,-1,-1,-1,-1,-1,
  36,-1,-1,-1,-1,-1,-1,
  36,-1,-1,-1,-1,-1,-1,
  36,61,86,-1,-1,-1,-1,
  36,-1,-1,-1,-1,-1,-1,
  36,-1,-1,-1,-1,-1,-1,
  36,61,86,-1,-1,-1,-1,
  36,-1,-1,-1,-1,-1,-1,
  36,-1,-1,-1,-1,-1,-1,
  36,61,-1,-1,-1,-1,-1,
  36,-1,-1,-1,-1,-1,-1,
  36,-1,-1,-1,-1,-1,-1,
  36,61,-1,-1,-1,-1,-1,
  36,-1,-1,-1,-1,-1,-1,
  36,-1,-1,-1,-1,-1,-1,
  36,61,-1,-1,-1,-1,-1,
  36,-1,-1,-1,-1,-1,-1,
  36,-1,-1,-1,-1,-1,-1,
  36,-1,-1,-1,-1,-1,-1,
  36,-1,-1,-1,-1,-1,-1,
  36,-1,-1,-1,-1,-1,-1,
  36,61,-1,-1,-1,-1,-1,
  36,-1,-1,-1,-1,-1,-1,
  36,-1,-1,-1,-1,-1,-1,
  36,-1,-1,-1,-1,-1,-1,
  36,-1,-1,-1,-1,-1,-1,
  36,-1,-1,-1,-1,-1,-1,
  36,61,-1,-1,-1,-1,-1,
  36,-1,-1,-1,-1,-1,-1,
  86,111,136,-1,-1,-1,-1,
  86,-1,-1,-1,-1,-1,-1,
  86,-1,-1,-1,-1,-1,-1,
  36,-1,-1,-1,-1,-1,-1,
  36,-1,-1,-1,-1,-1,-1,
  36,-1,-1,-1,-1,-1,-1,
  36,-1,-1,-1,-1,-1,-1,
  36,61,86,-1,-1,-1,-1,
  36,-1,-1,-1,-1,-1,-1,
  36,61,86,-1,-1,-1,-1,
  36,61,-1,-1,-1,-1,-1,
  36,-1,-1,-1,-1,-1,-1,
  61,-1,-1,-1,-1,-1,-1,
  61,-1,-1,-1,-1,-1,-1,
  61,-1,-1,-1,-1,-1,-1,
  36,-1,-1,-1,-1,-1,-1,
  36,-1,-1,-1,-1,-1,-1,
  36,-1,-1,-1,-1,-1,-1,
  36,-1,-1,-1,-1,-1,-1,
  36,61,-1,-1,-1,-1,-1,
  36,-1,-1,-1,-1,-1,-1,
  36,-1,-1,-1,-1,-1,-1,
  36,-1,-1,-1,-1,-1,-1,
  36,-1,-1,-1,-1,-1,-1,
  36,-1,-1,-1,-1,-1,-1,
  36,-1,-1,-1,-1,-1,-1,
  36,-1,-1,-1,-1,-1,-1,
  61,-1,-1,-1,-1,-1,-1,
  61,-1,-1,-1,-1,-1,-1,
  61,-1,-1,-1,-1,-1,-1,
  36,-1,-1,-1,-1,-1,-1,
  36,61,-1,-1,-1,-1,-1,
  36,-1,-1,-1,-1,-1,-1,
  36,-1,-1,-1,-1,-1,-1,
  36,-1,-1,-1,-1,-1,-1,
  36,-1,-1,-1,-1,-1,-1,
  36,-1,-1,-1,-1,-1,-1,
  36,61,86,-1,-1,-1,-1,
  36,-1,-1,-1,-1,-1,-1,
  36,-1,-1,-1,-1,-1,-1,
  36,61,86,-1,-1,-1,-1,
  36,-1,-1,-1,-1,-1,-1,
  36,-1,-1,-1,-1,-1,-1,
  36,61,-1,-1,-1,-1,-1,
  36,-1,-1,-1,-1,-1,-1,
  36,-1,-1,-1,-1,-1,-1,
  36,61,-1,-1,-1,-1,-1,
  36,-1,-1,-1,-1,-1,-1,
  36,-1,-1,-1,-1,-1,-1,
  36,61,86,-1,-1,-1,-1,
  36,-1,-1,-1,-1,-1,-1,
  36,61,-1,-1,-1,-1,-1,
  36,61,86,-1,-1,-1,-1,
  36,-1,-1,-1,-1,-1,-1,
  61,-1,-1,-1,-1,-1,-1,
  61,-1,-1,-1,-1,-1,-1,
  61,-1,-1,-1,-1,-1,-1,
  61,-1,-1,-1,-1,-1,-1,
  61,-1,-1,-1,-1,-1,-1,
  61,-1,-1,-1,-1,-1,-1,
  36,-1,-1,-1,-1,-1,-1,
  36,-1,-1,-1,-1,-1,-1,
  36,-1,-1,-1,-1,-1,-1,
  36,-1,-1,-1,-1,-1,-1,
  36,61,86,-1,-1,-1,-1,
  36,-1,-1,-1,-1,-1,-1,
  36,-1,-1,-1,-1,-1,-1,
  36,61,-1,-1,-1,-1,-1,
  36,-1,-1,-1,-1,-1,-1,
  36,-1,-1,-1,-1,-1,-1,
  36,61,-1,-1,-1,-1,-1,
  36,-1,-1,-1,-1,-1,-1,
  36,-1,-1,-1,-1,-1,-1,
  36,-1,-1,-1,-1,-1,-1,
  36,-1,-1,-1,-1,-1,-1,
  36,-1,-1,-1,-1,-1,-1,
  36,-1,-1,-1,-1,-1,-1,
  36,-1,-1,-1,-1,-1,-1,
  36,-1,-1,-1,-1,-1,-1,
  36,-1,-1,-1,-1,-1,-1,
  36,-1,-1,-1,-1,-1,-1,
  36,-1,-1,-1,-1,-1,-1,
  36,-1,-1,-1,-1,-1,-1,
  36,-1,-1,-1,-1,-1,-1,
  36,-1,-1,-1,-1,-1,-1,
  36,61,-1,-1,-1,-1,-1,
  36,-1,-1,-1,-1,-1,-1,
  36,-1,-1,-1,-1,-1,-1,
  36,61,-1,-1,-1,-1,-1,
  36,-1,-1,-1,-1,-1,-1,
  36,-1,-1,-1,-1,-1,-1,
  36,61,-1,-1,-1,-1,-1,
  36,-1,-1,-1,-1,-1,-1,
  36,-1,-1,-1,-1,-1,-1,
  36,-1,-1,-1,-1,-1,-1,
  36,-1,-1,-1,-1,-1,-1,
  36,-1,-1,-1,-1,-1,-1,
  36,61,-1,-1,-1,-1,-1,
  36,-1,-1,-1,-1,-1,-1,
  36,-1,-1,-1,-1,-1,-1,
  36,61,-1,-1,-1,-1,-1,
  36,-1,-1,-1,-1,-1,-1,
  36,-1,-1,-1,-1,-1,-1,
  36,61,-1,-1,-1,-1,-1,
  36,-1,-1,-1,-1,-1,-1,
  36,-1,-1,-1,-1,-1,-1,
  36,61,-1,-1,-1,-1,-1,
  36,-1,-1,-1,-1,-1,-1,
  36,61,-1,-1,-1,-1,-1,
  36,61,-1,-1,-1,-1,-1,
  36,-1,-1,-1,-1,-1,-1,
  36,-1,-1,-1,-1,-1,-1,
  36,61,-1,-1,-1,-1,-1,
  36,-1,-1,-1,-1,-1,-1,
  36,-1,-1,-1,-1,-1,-1,
  36,-1,-1,-1,-1,-1,-1,
  36,-1,-1,-1,-1,-1,-1,
  36,61,-1,-1,-1,-1,-1,
  36,61,-1,-1,-1,-1,-1,
  36,-1,-1,-1,-1,-1,-1,
  36,-1,-1,-1,-1,-1,-1,
  36,-1,-1,-1,-1,-1,-1,
  36,-1,-1,-1,-1,-1,-1,
  36,-1,-1,-1,-1,-1,-1,
  36,61,86,-1,-1,-1,-1,
  36,-1,-1,-1,-1,-1,-1,
  36,61,-1,-1,-1,-1,-1,
  36,61,86,-1,-1,-1,-1,
  36,-1,-1,-1,-1,-1,-1,
  36,-1,-1,-1,-1,-1,-1,
  36,-1,-1,-1,-1,-1,-1,
  36,-1,-1,-1,-1,-1,-1,
  36,61,-1,-1,-1,-1,-1,
  36,-1,-1,-1,-1,-1,-1,
  36,-1,-1,-1,-1,-1,-1,
  36,-1,-1,-1,-1,-1,-1,
  36,-1,-1,-1,-1,-1,-1,
  36,-1,-1,-1,-1,-1,-1,
  61,-1,-1,-1,-1,-1,-1,
  61,86,-1,-1,-1,-1,-1,
  61,86,111,136,-1,-1,-1,
  36,61,-1,-1,-1,-1,-1,
  36,61,-1,-1,-1,-1,-1,
  36,-1,-1,-1,-1,-1,-1,
  36,-1,-1,-1,-1,-1,-1,
  36,-1,-1,-1,-1,-1,-1,
  36,-1,-1,-1,-1,-1,-1,
  36,-1,-1,-1,-1,-1,-1,
  36,-1,-1,-1,-1,-1,-1,
  36,-1,-1,-1,-1,-1,-1,
  36,61,86,-1,-1,-1,-1,
  36,-1,-1,-1,-1,-1,-1,
  36,-1,-1,-1,-1,-1,-1,
  36,61,-1,-1,-1,-1,-1,
  36,61,-1,-1,-1,-1,-1,
  36,61,86,-1,-1,-1,-1,
  36,61,-1,-1,-1,-1,-1,
  36,61,86,-1,-1,-1,-1,
  36,-1,-1,-1,-1,-1,-1,
  36,-1,-1,-1,-1,-1,-1,
  36,61,86,-1,-1,-1,-1,
  36,-1,-1,-1,-1,-1,-1,
  36,-1,-1,-1,-1,-1,-1,
  36,61,-1,-1,-1,-1,-1,
  36,-1,-1,-1,-1,-1,-1,
  36,61,-1,-1,-1,-1,-1,
  36,-1,-1,-1,-1,-1,-1,
  36,-1,-1,-1,-1,-1,-1,
  36,-1,-1,-1,-1,-1,-1,
  36,61,86,111,-1,-1,-1,
  36,-1,-1,-1,-1,-1,-1,
  36,-1,-1,-1,-1,-1,-1,
  36,61,86,-1,-1,-1,-1,
  36,-1,-1,-1,-1,-1,-1,
  36,-1,-1,-1,-1,-1,-1,
  36,-1,-1,-1,-1,-1,-1,
  36,61,86,111,136,-1,-1,
  36,-1,-1,-1,-1,-1,-1,
  36,-1,-1,-1,-1,-1,-1,
  36,-1,-1,-1,-1,-1,-1,
  36,-1,-1,-1,-1,-1,-1,
  36,-1,-1,-1,-1,-1,-1,
  36,-1,-1,-1,-1,-1,-1,
  36,-1,-1,-1,-1,-1,-1,
  36,-1,-1,-1,-1,-1,-1,
  36,-1,-1,-1,-1,-1,-1,
  86,-1,-1,-1,-1,-1,-1,
  86,-1,-1,-1,-1,-1,-1,
  86,-1,-1,-1,-1,-1,-1,
  36,-1,-1,-1,-1,-1,-1,
  36,-1,-1,-1,-1,-1,-1,
  36,-1,-1,-1,-1,-1,-1,
  36,61,-1,-1,-1,-1,-1,
  36,61,86,111,136,161,186,
  36,-1,-1,-1,-1,-1,-1,
  36,-1,-1,-1,-1,-1,-1,
  36,-1,-1,-1,-1,-1,-1,
  36,-1,-1,-1,-1,-1,-1,
  36,-1,-1,-1,-1,-1,-1,
  36,-1,-1,-1,-1,-1,-1,
  36,-1,-1,-1,-1,-1,-1,
  36,-1,-1,-1,-1,-1,-1,
  36,61,-1,-1,-1,-1,-1,
  36,-1,-1,-1,-1,-1,-1,
  36,-1,-1,-1,-1,-1,-1,
  36,61,-1,-1,-1,-1,-1,
  36,-1,-1,-1,-1,-1,-1,
  36,-1,-1,-1,-1,-1,-1,
  36,61,-1,-1,-1,-1,-1,
  36,-1,-1,-1,-1,-1,-1,
  36,-1,-1,-1,-1,-1,-1,
  36,-1,-1,-1,-1,-1,-1,
  36,-1,-1,-1,-1,-1,-1,
  36,-1,-1,-1,-1,-1,-1,
  36,-1,-1,-1,-1,-1,-1,
  36,-1,-1,-1,-1,-1,-1,
  36,-1,-1,-1,-1,-1,-1,
  36,-1,-1,-1,-1,-1,-1,
  36,-1,-1,-1,-1,-1,-1,
  36,-1,-1,-1,-1,-1,-1,
  36,-1,-1,-1,-1,-1,-1,
  36,-1,-1,-1,-1,-1,-1,
  36,-1,-1,-1,-1,-1,-1,
  36,-1,-1,-1,-1,-1,-1,
  36,-1,-1,-1,-1,-1,-1,
  36,-1,-1,-1,-1,-1,-1,
  36,-1,-1,-1,-1,-1,-1,
  36,-1,-1,-1,-1,-1,-1,
  36,-1,-1,-1,-1,-1,-1,
  36,61,-1,-1,-1,-1,-1,
  36,-1,-1,-1,-1,-1,-1,
  36,-1,-1,-1,-1,-1,-1,
  36,61,-1,-1,-1,-1,-1,
  36,-1,-1,-1,-1,-1,-1,
  36,-1,-1,-1,-1,-1,-1,
  36,61,-1,-1,-1,-1,-1,
  36,-1,-1,-1,-1,-1,-1,
  36,-1,-1,-1,-1,-1,-1,
  36,61,-1,-1,-1,-1,-1,
  36,-1,-1,-1,-1,-1,-1,
  36,-1,-1,-1,-1,-1,-1,
  36,61,-1,-1,-1,-1,-1,
  36,-1,-1,-1,-1,-1,-1,
  36,-1,-1,-1,-1,-1,-1,
  36,61,-1,-1,-1,-1,-1,
  36,-1,-1,-1,-1,-1,-1,
  36,-1,-1,-1,-1,-1,-1,
  36,61,-1,-1,-1,-1,-1,
  36,-1,-1,-1,-1,-1,-1,
  36,-1,-1,-1,-1,-1,-1,
  36,-1,-1,-1,-1,-1,-1,
  36,-1,-1,-1,-1,-1,-1,
  36,-1,-1,-1,-1,-1,-1,
  36,61,-1,-1,-1,-1,-1,
  36,-1,-1,-1,-1,-1,-1,
  36,-1,-1,-1,-1,-1,-1,
  36,-1,-1,-1,-1,-1,-1,
  36,-1,-1,-1,-1,-1,-1,
  36,61,-1,-1,-1,-1,-1,
  36,-1,-1,-1,-1,-1,-1,
  36,-1,-1,-1,-1,-1,-1,
  36,61,-1,-1,-1,-1,-1,
  36,-1,-1,-1,-1,-1,-1,
  36,61,86,-1,-1,-1,-1,
  36,-1,-1,-1,-1,-1,-1,
  36,-1,-1,-1,-1,-1,-1,
  36,-1,-1,-1,-1,-1,-1,
  36,61,-1,-1,-1,-1,-1,
  36,61,-1,-1,-1,-1,-1,
  36,-1,-1,-1,-1,-1,-1,
  36,61,-1,-1,-1,-1,-1,
  36,-1,-1,-1,-1,-1,-1,
  36,-1,-1,-1,-1,-1,-1,
  36,-1,-1,-1,-1,-1,-1,
  36,61,86,-1,-1,-1,-1,
  36,-1,-1,-1,-1,-1,-1,
  36,-1,-1,-1,-1,-1,-1,
  36,61,86,-1,-1,-1,-1,
  36,-1,-1,-1,-1,-1,-1,
  36,-1,-1,-1,-1,-1,-1,
  36,61,86,-1,-1,-1,-1,
  36,-1,-1,-1,-1,-1,-1,
  36,-1,-1,-1,-1,-1,-1,
  36,-1,-1,-1,-1,-1,-1,
  36,-1,-1,-1,-1,-1,-1,
  36,-1,-1,-1,-1,-1,-1,
  36,-1,-1,-1,-1,-1,-1,
  36,-1,-1,-1,-1,-1,-1,
  36,-1,-1,-1,-1,-1,-1,
  36,61,-1,-1,-1,-1,-1,
  36,-1,-1,-1,-1,-1,-1,
  36,-1,-1,-1,-1,-1,-1,
  36,61,86,-1,-1,-1,-1,
  36,-1,-1,-1,-1,-1,-1,
  61,-1,-1,-1,-1,-1,-1,
  61,-1,-1,-1,-1,-1,-1,
  61,-1,-1,-1,-1,-1,-1,
  36,-1,-1,-1,-1,-1,-1,
  36,61,-1,-1,-1,-1,-1,
  36,-1,-1,-1,-1,-1,-1,
  36,-1,-1,-1,-1,-1,-1,
  36,61,86,-1,-1,-1,-1,
  36,-1,-1,-1,-1,-1,-1,
  36,-1,-1,-1,-1,-1,-1,
  36,61,-1,-1,-1,-1,-1,
  36,-1,-1,-1,-1,-1,-1,
  36,61,-1,-1,-1,-1,-1,
  36,-1,-1,-1,-1,-1,-1,
  36,-1,-1,-1,-1,-1,-1,
  36,-1,-1,-1,-1,-1,-1,
  36,61,-1,-1,-1,-1,-1,
  36,-1,-1,-1,-1,-1,-1,
  36,61,-1,-1,-1,-1,-1,
  36,-1,-1,-1,-1,-1,-1,
  36,-1,-1,-1,-1,-1,-1,
  36,-1,-1,-1,-1,-1,-1,
  36,61,-1,-1,-1,-1,-1,
  36,-1,-1,-1,-1,-1,-1,
  36,61,-1,-1,-1,-1,-1,
  36,61,86,-1,-1,-1,-1,
  36,-1,-1,-1,-1,-1,-1,
  36,-1,-1,-1,-1,-1,-1,
  36,-1,-1,-1,-1,-1,-1,
  36,-1,-1,-1,-1,-1,-1,
  36,61,-1,-1,-1,-1,-1,
  36,61,-1,-1,-1,-1,-1,
  36,-1,-1,-1,-1,-1,-1,
  36,-1,-1,-1,-1,-1,-1,
  36,61,-1,-1,-1,-1,-1,
  36,-1,-1,-1,-1,-1,-1,
  36,61,-1,-1,-1,-1,-1,
  36,61,-1,-1,-1,-1,-1,
  36,-1,-1,-1,-1,-1,-1,
  36,-1,-1,-1,-1,-1,-1,
  36,61,-1,-1,-1,-1,-1,
  36,-1,-1,-1,-1,-1,-1,
  36,-1,-1,-1,-1,-1,-1,
  36,-1,-1,-1,-1,-1,-1,
  36,-1,-1,-1,-1,-1,-1,
  36,-1,-1,-1,-1,-1,-1,
  36,61,-1,-1,-1,-1,-1,
  36,-1,-1,-1,-1,-1,-1,
  36,-1,-1,-1,-1,-1,-1,
  36,61,-1,-1,-1,-1,-1,
  36,-1,-1,-1,-1,-1,-1 ]);
